0000000000000000
0000011000000000
0000011000000000
0000011000000000
0000011111111000
0000000000011000
0000000000110000
0000000001100000
0000000011000000
0000000011000000
0000000011000000
0000000000000000
0000000000000000
0000000000000000
0000000000000000
0000000000000000
